1035 2024
2 1 4
145 1 -4
463 1 -4
657 1 4
596 2 -4
846 2 -4
1004 2 4
4 3 4
136 3 -4
500 3 4
524 3 -4
522 4 -4
523 4 -4
912 4 4
78 5 4
503 5 -4
824 5 4
868 5 -4
7 6 4
12 6 4
15 6 -4
438 6 -4
105 7 -4
448 7 -4
713 7 4
481 8 4
499 8 -4
525 8 -4
549 8 4
10 9 -4
18 9 4
870 9 4
873 9 -4
27 10 4
632 10 4
633 10 -4
91 11 -4
396 11 4
439 11 -4
676 11 4
67 12 -4
396 12 -4
680 12 4
78 13 -4
397 13 -4
781 13 4
921 13 4
191 14 4
490 14 -4
674 14 -4
880 14 4
82 15 -4
644 15 4
988 15 4
154 16 -4
514 16 4
591 16 4
617 16 -4
398 17 -4
503 17 -4
826 17 4
872 17 4
398 18 -4
746 18 4
829 18 -4
20 19 -4
179 19 4
424 19 -4
927 19 4
104 20 4
489 20 -4
748 20 4
93 21 -4
396 21 -4
610 21 4
935 21 4
168 22 -4
492 22 4
567 22 4
652 22 -4
24 23 4
25 23 -4
187 23 -4
957 23 4
159 24 4
406 24 -4
419 24 -4
173 25 4
409 25 -4
1009 25 4
27 26 4
397 26 -4
709 26 4
875 26 -4
1031 27 -4
1034 27 -4
29 28 -4
166 28 4
426 28 -4
980 28 4
116 29 4
511 29 -4
786 29 4
31 30 4
474 30 4
593 30 -4
688 30 -4
329 31 4
539 31 -4
996 31 -4
33 32 4
183 32 4
801 32 -4
897 32 -4
292 33 -4
301 33 4
474 33 -4
35 34 4
36 34 -4
200 34 -4
1013 34 4
85 35 -4
146 35 4
417 35 -4
186 36 4
411 36 -4
732 36 4
230 37 4
295 37 4
918 37 -4
974 37 -4
39 38 4
398 38 -4
671 38 4
924 38 -4
974 39 4
975 39 -4
978 39 -4
41 40 4
42 40 -4
152 40 4
431 40 -4
54 41 4
423 41 -4
583 41 -4
127 42 4
535 42 -4
831 42 4
44 43 4
400 43 -4
642 43 -4
835 43 4
152 44 -4
191 44 -4
192 44 4
46 45 4
461 45 4
619 45 -4
724 45 -4
318 46 -4
513 46 -4
590 46 4
170 47 4
475 47 4
494 47 -4
621 47 -4
49 48 4
50 48 -4
147 48 4
812 48 -4
71 49 -4
413 49 -4
811 49 4
199 50 4
413 50 -4
769 50 4
52 51 4
102 51 -4
698 51 4
908 51 -4
133 52 -4
147 52 -4
960 52 4
239 53 4
284 53 4
919 53 -4
972 53 -4
178 54 -4
252 54 -4
288 54 4
140 55 4
423 55 -4
560 55 -4
879 55 4
57 56 4
220 56 -4
752 56 -4
791 56 4
139 57 -4
179 57 -4
180 57 4
157 58 4
493 58 4
516 58 -4
622 58 -4
60 59 4
573 59 -4
851 59 4
953 59 -4
464 60 -4
598 60 -4
730 60 4
62 61 -4
134 61 4
770 61 -4
851 61 4
214 62 4
417 62 -4
810 62 4
115 63 -4
735 63 4
856 63 -4
1015 63 4
190 64 -4
248 64 -4
298 64 4
980 64 4
66 65 4
232 65 -4
711 65 -4
755 65 4
166 66 -4
167 66 4
407 66 -4
537 67 4
719 67 -4
838 67 4
69 68 -4
94 68 4
460 68 -4
537 68 4
208 69 4
459 69 -4
645 69 4
144 70 4
515 70 4
541 70 -4
655 70 -4
72 71 4
544 71 -4
903 71 4
450 72 -4
571 72 -4
767 72 4
74 73 -4
122 73 4
733 73 -4
903 73 4
419 74 -4
808 74 4
853 74 4
76 75 4
124 75 -4
774 75 4
813 75 -4
121 76 4
122 76 -4
546 76 -4
735 77 -4
737 77 4
774 77 4
776 77 -4
239 78 -4
260 78 4
205 79 -4
305 79 4
558 79 -4
927 79 4
81 80 4
242 80 -4
675 80 -4
714 80 4
152 81 -4
153 81 4
404 81 -4
563 82 4
761 82 -4
794 82 4
515 83 -4
540 83 4
891 83 4
942 83 -4
131 84 4
540 84 4
569 84 -4
691 84 -4
86 85 4
99 85 4
519 85 -4
440 86 -4
543 86 -4
807 86 4
88 87 4
574 87 -4
771 87 -4
816 87 4
113 88 4
414 88 -4
521 88 -4
698 89 -4
700 89 4
816 89 4
819 89 -4
218 90 -4
314 90 4
533 90 -4
880 90 4
92 91 4
640 91 -4
677 91 4
103 92 -4
139 92 -4
141 92 4
587 93 4
758 93 4
797 93 -4
278 94 4
401 94 -4
941 94 -4
96 95 4
493 95 -4
568 95 4
997 95 -4
278 96 -4
390 96 4
841 96 -4
568 97 4
595 97 -4
727 97 -4
842 97 4
406 98 4
432 98 -4
518 98 -4
850 98 4
406 99 -4
956 99 4
1012 99 -4
479 100 4
732 100 4
813 100 -4
956 100 -4
102 101 -4
175 101 4
859 101 4
862 101 -4
270 102 4
661 102 4
104 103 4
106 103 4
882 103 -4
832 104 -4
983 104 -4
106 105 4
107 105 -4
641 105 4
407 106 -4
446 106 -4
426 107 -4
676 107 4
984 107 4
402 108 4
459 108 -4
684 108 4
992 108 -4
265 109 -4
383 109 4
461 109 4
800 109 -4
594 110 4
620 110 -4
764 110 -4
896 110 4
235 111 4
463 111 -4
896 111 4
897 111 -4
364 112 4
409 112 4
427 112 -4
497 112 -4
173 113 4
856 113 -4
906 113 -4
115 114 -4
161 114 4
910 114 4
913 114 -4
282 115 4
626 115 4
404 116 4
787 116 -4
930 116 -4
431 117 -4
437 117 -4
713 117 4
931 117 4
255 118 -4
377 118 4
474 118 4
763 118 -4
224 119 4
597 119 -4
842 119 -4
948 119 4
171 120 -4
372 120 4
411 120 4
478 120 -4
159 121 4
854 121 -4
908 121 -4
734 122 -4
810 122 4
124 123 -4
150 123 4
961 123 4
964 123 -4
293 124 4
600 124 4
126 125 4
665 125 -4
920 125 4
975 125 -4
340 126 4
578 126 -4
741 126 -4
407 127 4
750 127 -4
883 127 -4
436 128 -4
446 128 -4
754 128 4
884 128 4
343 129 4
437 129 4
446 129 -4
678 129 -4
131 130 -4
211 130 4
623 130 -4
1003 130 4
292 131 -4
803 131 4
158 132 -4
380 132 4
413 132 4
464 132 -4
146 133 4
811 133 -4
1015 133 4
696 134 -4
853 134 4
1015 134 -4
574 135 -4
818 135 4
1019 135 4
1022 135 -4
176 136 4
739 136 -4
818 136 4
138 137 4
631 137 -4
871 137 4
1031 137 -4
334 138 4
552 138 -4
703 138 -4
140 139 4
423 139 4
314 140 -4
833 140 -4
641 141 4
985 141 -4
986 141 -4
143 142 4
144 142 -4
196 142 4
656 142 -4
250 143 4
596 143 -4
895 143 -4
280 144 -4
802 144 4
496 145 4
806 145 4
953 145 -4
354 146 -4
768 146 -4
660 147 -4
905 147 4
174 148 4
499 148 -4
549 148 4
960 148 -4
150 149 -4
162 149 4
526 149 -4
861 149 4
600 150 -4
914 150 4
325 151 4
528 151 -4
664 151 -4
826 151 4
673 152 4
677 153 4
932 153 -4
933 153 -4
194 154 4
541 154 -4
653 154 4
156 155 4
157 155 -4
184 155 4
692 155 -4
244 156 4
570 156 -4
946 156 -4
267 157 -4
843 157 4
477 158 4
849 158 4
1006 158 -4
359 159 -4
731 159 -4
355 160 -4
522 160 4
908 160 4
909 160 -4
415 161 -4
626 161 -4
863 161 4
415 162 -4
466 162 4
482 162 -4
313 163 4
502 163 -4
629 163 -4
781 163 4
165 164 4
445 164 -4
928 164 4
981 164 -4
583 165 -4
639 166 4
752 166 -4
308 167 -4
714 167 4
885 167 -4
181 168 4
569 168 -4
618 168 4
234 169 4
449 169 4
542 169 -4
1001 169 -4
256 170 -4
449 170 -4
898 170 4
172 171 4
198 171 4
951 171 -4
463 172 4
598 172 -4
765 172 -4
693 173 -4
695 173 -4
360 174 -4
856 174 4
857 174 -4
366 175 4
418 175 -4
661 175 -4
418 176 -4
452 176 4
501 176 -4
304 177 4
483 177 -4
603 177 -4
743 177 4
879 178 4
608 179 4
711 179 -4
317 180 -4
755 180 4
834 180 -4
223 181 4
593 181 -4
1001 181 -4
223 182 -4
462 182 4
517 182 -4
654 182 4
250 183 -4
462 183 -4
949 183 4
185 184 4
462 184 -4
477 184 -4
427 185 4
571 185 -4
728 185 -4
373 186 -4
953 186 4
954 186 -4
258 187 4
813 187 -4
909 187 4
365 188 -4
813 188 4
814 188 -4
1019 188 4
294 189 4
467 189 -4
578 189 -4
705 189 4
831 190 4
584 191 4
675 191 -4
327 192 -4
789 192 -4
791 192 4
319 193 -4
566 193 4
567 193 -4
619 193 4
210 194 4
619 194 -4
946 194 -4
210 195 -4
476 195 4
495 195 -4
690 195 4
197 196 4
476 196 -4
496 196 -4
432 197 4
543 197 -4
692 197 -4
199 198 4
432 198 -4
1009 198 -4
381 199 -4
904 199 -4
269 200 4
771 200 -4
857 200 4
374 201 -4
771 201 4
772 201 -4
961 201 4
422 202 4
525 202 -4
600 202 4
962 202 -4
453 203 -4
552 203 -4
667 203 4
973 203 4
247 204 4
430 204 -4
555 204 4
580 204 -4
786 205 4
275 206 -4
350 206 4
424 206 4
787 206 -4
336 207 -4
752 207 4
753 207 -4
835 207 4
393 208 -4
721 208 4
940 208 -4
592 209 -4
649 209 4
721 209 -4
996 209 4
369 210 4
727 210 -4
212 211 4
495 211 -4
1006 211 -4
440 212 4
518 212 -4
656 212 -4
353 213 4
440 213 -4
623 213 -4
848 213 4
385 214 -4
849 214 4
852 214 -4
425 215 4
500 215 -4
626 215 4
911 215 -4
228 216 -4
528 216 -4
632 216 4
1030 216 4
240 217 4
435 217 -4
530 217 4
605 217 -4
748 218 4
287 219 -4
426 219 4
750 219 -4
751 219 4
221 220 4
473 220 4
987 220 -4
344 221 -4
711 221 4
712 221 -4
392 222 4
611 222 4
681 222 -4
993 222 -4
378 223 4
764 223 -4
225 224 4
517 224 -4
951 224 -4
450 225 4
497 225 -4
623 225 -4
358 226 4
450 226 -4
656 226 -4
902 226 4
428 227 4
481 227 -4
661 227 4
860 227 -4
229 228 4
230 228 4
429 228 -4
467 229 -4
601 229 4
662 229 -4
502 230 -4
503 230 -4
297 231 -4
314 231 -4
431 231 4
788 231 4
233 232 4
458 232 4
935 232 -4
342 233 -4
352 233 -4
675 233 4
620 234 -4
622 234 -4
1000 234 4
236 235 4
542 235 -4
900 235 -4
464 236 4
478 236 -4
597 236 -4
363 237 4
371 237 4
464 237 -4
692 237 -4
433 238 4
465 238 -4
699 238 4
817 238 -4
453 239 4
483 239 -4
455 240 -4
305 241 -4
436 241 4
490 241 -4
833 241 4
243 242 4
448 242 4
988 242 -4
351 243 -4
640 243 4
642 243 -4
594 244 4
595 244 -4
621 244 -4
333 245 -4
355 245 4
774 245 4
1016 245 -4
441 246 4
451 246 -4
736 246 4
775 246 -4
470 247 -4
341 248 4
388 249 -4
390 249 4
723 249 4
840 249 -4
568 250 4
569 250 -4
338 251 -4
347 251 4
735 251 4
959 251 -4
349 252 4
512 253 4
537 253 -4
679 253 -4
718 253 4
383 254 4
763 254 4
798 254 -4
889 254 -4
279 255 -4
378 255 4
540 255 4
540 256 4
541 256 -4
1003 256 4
353 257 -4
384 257 -4
656 257 4
1003 257 4
693 258 4
733 258 -4
852 258 -4
260 259 -4
261 259 4
454 259 -4
504 259 4
325 260 4
579 260 -4
468 261 -4
507 261 4
531 261 -4
356 262 4
583 262 -4
264 263 4
439 263 4
458 263 -4
536 263 -4
563 264 -4
643 264 -4
682 264 4
266 265 4
491 265 4
725 265 -4
377 266 4
762 266 -4
840 266 -4
515 267 4
516 267 -4
948 267 4
358 268 -4
391 268 -4
692 268 4
948 268 4
731 269 4
770 269 -4
809 269 -4
333 270 4
548 270 -4
857 270 -4
304 271 4
468 271 4
529 271 -4
1030 271 -4
334 272 4
468 272 -4
553 272 4
604 272 -4
361 273 4
559 273 -4
275 274 4
276 274 -4
884 274 -4
983 274 4
559 275 4
560 275 -4
341 276 4
583 276 4
584 276 -4
561 277 4
587 277 -4
609 277 -4
646 277 4
279 278 -4
722 278 4
763 279 4
943 279 4
493 280 4
494 280 -4
896 280 4
363 281 -4
728 281 4
896 281 4
897 281 -4
323 282 4
523 282 -4
814 282 -4
294 283 4
484 283 4
505 283 -4
973 283 -4
340 284 4
484 284 -4
635 284 -4
368 285 4
534 285 -4
287 286 4
288 286 -4
930 286 4
931 286 -4
534 287 4
535 287 -4
349 288 4
608 288 -4
585 289 -4
643 289 -4
835 289 4
986 289 4
291 290 -4
460 290 4
686 290 4
891 290 -4
723 291 4
800 291 -4
998 291 4
475 292 4
842 292 4
547 293 -4
697 293 4
772 293 -4
918 294 -4
920 294 -4
348 295 4
505 295 -4
669 295 -4
297 296 4
298 296 -4
883 296 4
984 296 -4
510 297 4
511 297 -4
356 298 4
639 298 -4
609 299 -4
679 299 -4
791 299 4
933 299 4
301 300 4
687 300 4
841 300 -4
941 300 -4
618 301 -4
620 301 -4
359 302 -4
480 302 4
733 302 4
773 302 -4
915 303 4
1021 303 4
1022 303 -4
1025 303 -4
869 304 -4
871 304 -4
361 305 4
673 305 -4
308 306 4
834 306 4
885 306 -4
933 306 -4
308 307 4
643 307 -4
716 307 -4
755 307 4
987 308 -4
310 309 4
651 309 4
893 309 -4
995 309 -4
494 310 4
592 310 -4
595 310 -4
547 311 4
548 311 -4
861 311 -4
963 311 4
963 312 4
964 312 -4
966 312 4
967 312 -4
504 313 4
825 313 -4
827 313 -4
368 314 4
317 315 4
789 315 4
932 315 -4
986 315 -4
317 316 4
679 316 -4
714 316 4
757 316 -4
934 317 -4
319 318 4
616 318 4
944 318 -4
516 319 4
569 319 -4
520 320 4
1006 320 4
1007 320 -4
1008 320 -4
322 321 4
519 321 4
520 321 -4
659 321 -4
769 322 -4
807 322 -4
955 322 4
359 323 4
858 323 -4
958 323 -4
912 324 4
913 324 -4
916 324 -4
1024 324 4
780 325 -4
782 325 -4
327 326 4
677 326 4
716 326 -4
793 326 -4
790 327 4
886 327 -4
329 328 4
537 328 4
538 328 -4
590 328 -4
567 329 -4
613 329 -4
373 330 -4
545 330 4
951 330 4
952 330 -4
332 331 4
544 331 4
545 331 -4
693 331 -4
767 332 -4
810 332 -4
905 332 4
354 333 4
907 333 -4
742 334 -4
744 334 -4
336 335 4
641 335 4
757 335 -4
837 335 -4
754 336 4
836 336 -4
381 337 -4
572 337 4
900 337 4
901 337 -4
346 338 4
855 338 -4
1017 338 4
575 339 4
1017 339 4
1018 339 -4
1020 339 -4
704 340 -4
706 340 -4
979 341 -4
981 341 -4
674 342 4
713 342 4
788 342 -4
344 343 4
793 343 -4
887 343 -4
713 344 4
792 344 -4
385 345 -4
599 345 4
846 345 4
847 345 -4
810 346 4
811 346 -4
814 346 -4
600 347 4
960 347 -4
962 347 -4
665 348 4
666 348 -4
668 348 -4
926 349 -4
928 349 -4
351 350 4
608 350 -4
712 350 -4
676 351 4
751 351 -4
676 352 4
678 352 4
756 352 -4
1004 353 4
1007 353 -4
769 354 4
772 354 -4
626 355 4
911 355 -4
878 356 -4
881 356 -4
654 357 4
998 357 4
999 357 -4
1002 357 -4
949 358 4
952 358 -4
732 359 4
661 360 4
858 360 4
860 360 -4
830 361 -4
832 361 -4
690 362 4
943 362 4
944 362 -4
947 362 -4
898 363 4
901 363 -4
693 364 -4
904 364 -4
1008 364 4
699 365 4
815 365 4
817 365 -4
367 366 4
700 366 -4
821 366 -4
702 367 4
778 367 -4
914 367 -4
785 368 -4
787 368 -4
892 369 4
893 369 -4
895 369 -4
729 370 4
843 370 4
844 370 -4
847 370 -4
373 371 4
729 371 -4
1008 371 -4
373 372 4
731 372 -4
954 372 -4
736 374 4
773 374 4
775 374 -4
376 375 4
746 375 -4
395 376 -4
1033 376 4
1034 376 -4
994 377 -4
997 377 -4
841 378 -4
946 378 -4
766 379 4
802 379 4
803 379 -4
805 379 -4
381 380 4
768 380 -4
1010 380 -4
902 381 4
784 382 -4
1035 382 4
940 383 -4
942 383 -4
803 384 4
1001 384 4
1002 384 -4
808 385 4
848 385 4
387 386 4
829 386 -4
922 387 4
923 387 -4
925 387 -4
389 388 4
839 388 4
940 388 -4
991 389 4
992 389 -4
993 389 -4
890 390 -4
891 390 -4
844 391 4
946 391 4
947 391 -4
393 392 4
890 392 -4
994 392 -4
938 393 4
939 393 -4
918 394 4
1026 394 4
1027 394 -4
1029 394 -4
1035 395 4
447 396 -4
873 397 -4
919 397 4
974 398 4
460 399 -4
491 399 -4
538 399 -4
563 399 4
404 400 -4
437 400 -4
674 400 -4
513 401 -4
564 401 -4
587 401 4
491 402 -4
539 402 -4
588 402 -4
513 403 -4
565 403 -4
612 403 -4
646 403 4
929 404 -4
539 405 -4
589 405 -4
647 405 -4
682 405 4
520 406 -4
982 407 -4
565 408 -4
614 408 -4
683 408 -4
718 408 4
545 409 -4
903 409 -4
589 410 -4
649 410 -4
719 410 -4
760 410 4
572 411 -4
851 411 -4
614 412 -4
685 412 -4
761 412 -4
796 412 4
599 413 -4
769 414 4
771 414 -4
1012 414 -4
550 415 -4
912 415 4
649 416 -4
721 416 -4
797 416 -4
839 416 4
625 417 -4
806 417 4
576 418 -4
963 418 4
658 419 -4
849 419 4
526 420 -4
601 420 -4
700 420 -4
1021 420 4
443 421 -4
876 421 -4
550 422 -4
627 422 -4
737 422 -4
436 423 -4
640 424 -4
752 424 -4
576 425 -4
662 425 -4
776 425 -4
711 426 -4
900 427 -4
953 427 -4
601 428 -4
701 428 -4
819 428 -4
483 429 -4
576 429 4
701 429 -4
486 430 -4
675 431 -4
846 432 -4
627 433 -4
738 433 -4
862 433 -4
453 434 -4
502 434 -4
550 434 4
738 434 -4
507 435 -4
640 436 -4
438 437 -4
458 438 -4
754 438 4
512 439 -4
642 439 -4
849 440 -4
662 441 -4
777 441 -4
913 441 -4
467 442 -4
526 442 4
528 442 -4
777 442 -4
444 443 -4
506 443 4
636 443 -4
531 444 -4
559 445 -4
447 446 -4
473 447 -4
790 447 4
512 448 -4
561 448 -4
463 449 -4
728 449 -4
806 450 -4
701 451 -4
820 451 -4
964 451 -4
483 452 -4
552 452 -4
820 452 -4
968 453 -4
484 454 -4
486 454 4
556 454 -4
456 455 -4
485 455 4
670 455 -4
556 456 -4
534 457 -4
879 457 -4
585 458 -4
512 459 -4
585 459 -4
566 460 -4
475 461 -4
594 461 4
765 462 -4
738 465 -4
864 465 -4
1022 465 -4
502 466 -4
578 466 -4
864 466 -4
630 467 -4
469 468 -4
470 469 4
505 469 -4
581 469 -4
471 470 -4
708 470 -4
581 471 -4
510 472 -4
831 472 -4
561 473 -4
609 473 -4
1000 474 4
998 475 4
621 476 -4
804 476 -4
624 477 -4
804 477 -4
544 478 -4
729 478 -4
480 479 -4
498 479 -4
695 479 -4
522 480 -4
574 480 -4
777 481 -4
915 481 -4
528 482 -4
603 482 -4
915 482 -4
485 484 -4
529 485 -4
606 485 -4
487 486 -4
1033 486 -4
606 487 -4
489 488 -4
786 488 -4
490 489 -4
785 489 -4
749 490 -4
995 491 -4
494 492 -4
726 492 4
945 492 4
943 493 4
622 495 -4
845 495 -4
657 496 -4
845 496 -4
519 497 -4
766 497 -4
547 498 -4
734 498 -4
859 498 4
548 499 -4
963 499 4
820 500 -4
966 500 -4
552 501 -4
629 501 -4
966 501 -4
504 503 4
554 504 -4
506 505 -4
554 506 -4
637 506 -4
508 507 -4
977 507 -4
637 508 -4
511 509 -4
748 509 -4
747 510 -4
880 510 -4
830 511 -4
763 513 4
516 514 -4
689 514 4
894 514 4
892 515 4
655 517 -4
899 517 -4
520 518 -4
805 518 -4
657 519 -4
523 521 -4
696 521 -4
910 521 4
524 522 -4
524 523 -4
912 524 -4
864 525 -4
1024 525 -4
527 526 -4
578 527 -4
664 527 -4
1024 527 -4
530 529 -4
634 529 -4
579 530 -4
671 530 -4
532 531 -4
922 531 -4
671 532 -4
535 533 -4
927 534 -4
878 535 -4
538 536 -4
716 536 -4
760 536 4
680 538 4
723 539 4
799 541 -4
691 542 -4
950 542 -4
545 543 -4
847 543 -4
624 544 -4
548 546 -4
660 546 -4
961 546 4
549 547 -4
861 549 4
551 550 -4
603 551 -4
703 551 -4
1025 551 4
630 553 -4
870 553 -4
1029 553 -4
555 554 -4
668 554 -4
604 555 -4
709 555 -4
557 556 -4
874 556 -4
709 557 -4
560 558 -4
980 559 -4
926 560 -4
562 561 -4
564 562 -4
757 562 -4
796 562 4
613 563 4
613 564 -4
644 564 4
567 565 -4
687 565 4
685 566 -4
725 566 -4
800 568 4
597 570 -4
727 570 -4
1005 570 -4
572 571 -4
901 571 -4
730 572 -4
694 573 -4
730 573 -4
853 573 -4
575 574 4
818 575 -4
1021 575 4
577 576 -4
629 577 -4
741 577 -4
967 577 4
580 579 -4
706 579 -4
635 580 -4
746 580 -4
582 581 -4
923 581 -4
746 582 -4
674 584 -4
832 584 -4
586 585 -4
588 586 -4
793 586 -4
839 586 4
648 587 4
610 588 4
648 588 -4
591 589 -4
651 589 4
591 590 -4
648 590 -4
592 591 -4
593 592 4
595 593 -4
841 594 4
623 596 -4
764 596 -4
846 597 -4
599 598 -4
952 598 -4
767 599 -4
602 601 -4
664 602 -4
779 602 -4
916 602 4
665 603 -4
605 604 -4
744 604 -4
669 605 -4
784 605 -4
607 606 -4
978 606 -4
784 607 -4
881 608 -4
611 609 -4
612 610 -4
990 610 4
612 611 -4
837 611 -4
684 612 -4
615 613 -4
616 614 4
617 614 -4
617 615 -4
684 615 -4
995 615 4
618 616 -4
994 616 4
618 617 -4
620 619 -4
1004 621 4
1004 622 -4
625 624 -4
1007 624 -4
807 625 -4
848 625 4
628 627 -4
968 627 -4
703 628 -4
823 628 -4
865 628 4
631 629 -4
633 630 -4
971 630 -4
633 631 -4
823 631 -4
634 632 4
869 632 -4
634 633 -4
707 634 -4
636 635 -4
782 635 -4
707 636 -4
829 636 -4
638 637 -4
1034 637 -4
829 638 -4
751 639 -4
928 639 -4
715 641 -4
715 642 -4
645 643 -4
647 644 -4
937 644 4
647 645 -4
887 645 -4
720 646 4
939 646 -4
720 647 -4
650 648 -4
652 649 -4
652 650 -4
720 650 -4
941 650 4
653 651 -4
940 651 4
653 652 -4
998 653 -4
655 654 -4
945 654 4
949 655 -4
658 657 -4
850 658 -4
902 658 4
732 659 -4
850 659 -4
1011 659 4
733 660 -4
858 660 4
663 662 -4
741 663 -4
821 663 4
867 663 -4
666 664 -4
779 665 -4
826 666 -4
867 666 -4
668 667 4
825 667 -4
974 667 4
745 668 -4
670 669 -4
827 669 -4
745 670 -4
875 670 -4
672 671 -4
875 672 -4
788 673 -4
981 673 -4
756 677 -4
837 678 -4
936 678 -4
681 679 -4
683 680 -4
888 680 4
683 681 -4
936 681 -4
762 682 4
938 682 -4
762 683 -4
686 684 -4
688 685 -4
993 685 4
688 686 -4
762 686 -4
689 687 -4
890 687 4
689 688 -4
943 689 -4
691 690 -4
894 690 4
898 691 -4
695 694 -4
768 694 4
812 694 -4
697 695 -4
770 696 -4
815 696 4
815 697 -4
1014 697 -4
699 698 4
1017 698 4
700 699 -4
702 701 -4
779 702 -4
917 702 -4
704 703 -4
781 704 -4
917 704 -4
706 705 4
780 705 -4
919 705 4
783 706 -4
708 707 -4
871 707 -4
783 708 -4
924 708 -4
710 709 -4
924 710 -4
754 712 4
833 712 -4
792 714 -4
887 715 -4
989 715 -4
717 716 -4
719 717 -4
839 717 -4
989 717 -4
798 718 4
991 718 -4
798 719 -4
722 720 -4
724 721 -4
724 722 -4
798 722 -4
726 723 -4
726 724 -4
799 725 -4
892 725 4
892 726 -4
843 727 -4
729 728 -4
731 730 -4
773 734 4
812 734 -4
736 735 4
737 736 -4
863 737 -4
740 738 -4
740 739 -4
863 739 -4
968 739 -4
823 740 -4
970 740 -4
742 741 -4
743 742 -4
970 742 -4
744 743 4
870 743 4
828 744 -4
920 745 -4
1033 745 -4
749 747 -4
750 748 4
750 749 -4
979 749 -4
753 751 -4
790 753 4
883 753 -4
836 755 -4
758 756 -4
936 756 -4
759 757 -4
759 758 -4
836 758 -4
761 759 -4
796 759 -4
795 760 -4
840 760 4
840 761 -4
802 764 -4
766 765 -4
844 765 4
902 766 -4
768 767 -4
772 770 4
910 773 4
775 774 4
776 775 -4
914 776 -4
778 777 -4
867 778 -4
1028 778 -4
780 779 -4
1028 780 -4
782 781 4
872 782 -4
975 783 -4
977 783 -4
873 784 4
787 786 4
789 788 -4
930 789 -4
985 790 -4
886 791 -4
794 792 -4
989 792 -4
795 793 -4
795 794 -4
886 794 -4
797 795 -4
889 796 4
889 797 -4
801 799 -4
996 799 -4
801 800 -4
1001 801 -4
845 802 4
804 803 4
805 804 -4
848 805 -4
808 806 4
809 807 -4
809 808 -4
811 809 -4
814 812 4
859 815 4
817 816 4
858 816 4
819 817 -4
965 818 4
965 819 -4
822 820 -4
822 821 -4
965 821 -4
824 822 -4
917 822 -4
825 823 -4
825 824 -4
969 824 -4
827 826 4
921 827 -4
922 828 -4
1031 828 -4
1033 828 -4
832 831 4
834 833 -4
983 834 -4
934 835 -4
838 836 -4
991 837 -4
934 838 -4
991 838 -4
844 842 4
899 843 4
847 845 -4
852 850 -4
854 851 4
854 852 -4
855 853 4
855 854 -4
857 855 -4
957 856 -4
860 859 4
862 860 -4
1023 861 4
1023 862 -4
865 863 -4
866 864 -4
866 865 -4
1023 865 -4
868 866 -4
970 866 -4
869 867 -4
869 868 -4
1027 868 -4
976 870 4
976 871 -4
874 872 -4
977 872 -4
876 873 -4
876 874 -4
976 874 -4
877 875 -4
877 876 -4
881 879 4
882 880 4
882 881 -4
884 882 -4
885 883 -4
885 884 -4
888 886 -4
938 887 -4
938 888 -4
987 888 -4
890 889 -4
893 891 -4
1000 893 4
895 894 -4
999 894 4
897 895 -4
950 898 4
901 899 -4
1006 899 -4
1005 900 -4
906 903 4
906 904 -4
1011 904 -4
907 905 4
1010 905 -4
907 906 -4
909 907 -4
1013 908 -4
1017 909 -4
911 910 4
913 911 -4
916 914 -4
1026 915 -4
1026 916 -4
918 917 -4
1032 919 4
1032 920 -4
922 921 -4
923 921 -4
1032 923 -4
925 924 -4
929 927 4
929 928 -4
931 929 -4
932 930 -4
932 931 -4
935 933 -4
937 934 -4
937 935 -4
939 936 -4
939 937 -4
942 941 -4
944 942 -4
945 944 4
947 945 -4
1003 947 -4
1002 948 -4
1005 949 4
951 950 -4
952 950 -4
955 954 -4
956 954 -4
958 955 4
1013 955 4
958 956 -4
959 957 4
1011 957 4
959 958 -4
960 959 -4
962 961 4
964 962 -4
967 965 -4
969 966 -4
969 967 -4
971 968 -4
971 969 -4
972 970 -4
972 971 -4
973 972 -4
975 973 -4
978 976 -4
1035 977 4
1035 978 -4
982 980 4
982 981 -4
984 982 -4
985 983 -4
985 984 -4
988 986 -4
990 987 -4
990 988 -4
992 989 -4
992 990 -4
994 993 -4
997 995 -4
999 996 -4
999 997 -4
1002 1000 -4
1007 1005 -4
1009 1008 -4
1010 1009 -4
1012 1010 -4
1014 1011 4
1014 1012 -4
1016 1013 4
1016 1014 -4
1018 1015 4
1018 1016 -4
1019 1018 -4
1020 1019 4
1021 1020 -4
1022 1020 -4
1025 1023 -4
1027 1024 -4
1027 1025 -4
1028 1026 -4
1029 1028 -4
1030 1029 -4
1031 1030 -4
1034 1032 -4
640
396 2
397 2
398 2
399 2
400 4
401 2
402 2
403 2
404 2
405 2
406 2
407 2
408 2
409 2
410 2
411 2
412 2
413 2
414 2
415 2
416 2
417 2
418 2
419 2
420 2
421 2
422 2
423 2
424 2
425 2
426 2
427 2
428 2
429 2
430 2
431 2
432 2
433 2
434 2
435 2
436 2
437 2
438 2
439 2
440 2
441 2
442 2
443 2
444 2
445 2
446 4
447 2
448 2
449 2
450 2
451 4
452 2
453 2
454 2
455 2
456 2
457 2
458 2
459 4
460 2
461 -2
462 2
463 2
464 2
465 4
466 2
467 4
468 2
469 2
470 2
471 2
472 2
473 2
474 -2
475 -2
476 2
477 2
478 4
479 2
480 2
481 2
482 4
483 4
484 2
485 2
486 2
487 2
488 2
489 4
490 4
491 2
492 -2
493 -2
494 2
495 4
496 2
497 4
498 2
499 2
500 2
501 4
502 4
503 2
504 -2
505 4
506 2
507 2
508 2
509 2
510 2
511 4
512 2
513 2
514 -2
515 -2
516 2
517 4
518 4
519 2
520 2
521 2
522 2
523 4
524 4
525 4
526 2
527 4
528 4
529 4
530 2
531 4
532 2
533 2
534 2
535 4
536 2
537 -2
538 2
539 2
540 -4
541 4
542 4
543 4
544 2
545 2
546 2
547 2
548 4
549 -2
550 2
551 2
552 4
553 2
554 4
555 2
556 4
557 2
558 2
559 2
560 4
561 2
562 2
563 -2
564 2
565 2
566 2
567 2
568 -4
569 4
570 4
571 4
572 2
573 4
574 2
575 -2
576 2
577 2
578 4
579 4
580 4
581 4
582 2
583 2
584 2
585 4
586 2
587 -2
588 2
589 2
590 2
591 2
592 2
593 2
594 -4
595 4
596 4
597 4
598 4
599 2
600 -2
601 2
602 2
603 4
604 4
605 4
606 4
607 2
608 2
609 4
610 -2
611 2
612 4
613 2
614 2
615 2
616 -2
617 4
618 2
619 2
620 4
621 2
622 4
623 4
624 4
625 2
626 -2
627 4
628 2
629 4
630 4
631 4
632 -2
633 4
634 2
635 4
636 4
637 4
638 2
639 2
640 2
641 -2
642 4
643 4
644 -2
645 2
646 -2
647 4
648 2
649 2
650 2
651 -2
652 4
653 2
654 -2
655 4
656 2
657 2
658 2
659 2
660 2
661 -2
662 4
663 2
664 4
665 2
666 4
667 -2
668 2
669 4
670 4
671 2
672 2
673 2
674 2
675 2
676 -4
677 -2
678 2
679 4
680 -2
681 4
682 -2
683 4
684 2
685 2
686 2
687 -2
688 4
689 2
690 -2
691 4
692 2
693 2
694 2
695 4
696 2
697 2
698 -2
699 -2
700 2
701 4
702 2
703 4
704 4
705 -2
706 2
707 4
708 4
709 2
710 2
711 2
712 2
713 -4
714 -2
715 4
716 4
717 4
718 -2
719 4
720 2
721 2
722 2
723 -2
724 4
725 2
726 2
727 4
728 2
729 2
730 2
731 2
732 -2
733 2
734 2
735 -2
736 -2
737 2
738 4
739 4
740 4
741 4
742 4
743 -2
744 2
745 4
746 2
747 2
748 -2
749 4
750 2
751 2
752 2
753 2
754 -4
755 -2
756 4
757 4
758 2
759 4
760 -2
761 4
762 2
763 -2
764 4
765 2
766 2
767 2
768 2
769 -2
770 2
771 2
772 2
773 -2
774 -4
775 2
776 4
777 4
778 4
779 4
780 4
781 -2
782 2
783 4
784 2
785 2
786 -2
787 2
788 2
789 2
790 -2
791 -2
792 4
793 4
794 2
795 4
796 -2
797 4
798 2
799 4
800 2
801 4
802 -2
803 -2
804 2
805 4
806 -2
807 2
808 -2
809 4
810 -2
811 2
812 2
813 2
814 2
815 -2
816 -4
817 2
818 -2
819 4
820 4
821 2
822 4
823 4
824 2
825 4
826 -2
827 2
828 4
829 4
830 2
831 -2
832 2
833 2
834 2
835 -2
836 4
837 4
838 2
839 -2
840 2
841 2
842 -2
843 -2
844 -2
845 2
846 2
847 4
848 -2
849 -2
850 2
851 -2
852 4
853 -2
854 2
855 2
856 2
857 2
858 -2
859 -4
860 2
861 -2
862 4
863 2
864 4
865 2
866 4
867 4
868 4
869 4
870 -2
871 2
872 2
873 2
874 4
875 4
876 4
877 2
878 2
879 -2
880 -2
881 2
882 2
883 2
884 2
885 4
886 4
887 4
888 2
889 2
890 2
891 2
892 -2
893 2
894 -2
895 4
896 -4
897 4
898 -2
899 2
900 2
901 4
902 -2
903 -2
904 4
905 -2
906 2
907 2
908 2
909 2
910 -4
911 2
912 -2
913 4
914 2
915 2
916 2
917 4
918 2
919 -2
920 2
921 2
922 2
923 4
924 4
925 2
926 2
927 -2
928 2
929 2
930 2
931 2
932 4
933 2
934 4
935 2
936 4
937 2
938 2
939 4
940 2
941 2
942 4
943 -2
944 2
945 -2
946 2
947 4
948 -2
949 -2
950 2
951 2
952 4
953 2
954 4
955 -2
956 2
957 -2
958 2
959 2
960 2
961 -4
962 2
963 -4
964 4
965 2
966 2
967 2
968 4
969 4
970 4
971 4
972 4
973 2
974 -2
975 4
976 2
977 2
978 4
979 2
980 -2
981 4
982 2
983 2
984 2
985 4
986 2
987 4
988 2
989 4
990 2
991 2
992 4
993 2
994 2
995 2
996 2
997 4
998 -2
999 2
1000 -2
1001 2
1002 4
1003 -2
1004 -2
1005 2
1006 2
1007 4
1008 2
1009 2
1010 4
1011 -2
1012 4
1013 -2
1014 2
1015 -2
1016 2
1017 -2
1018 2
1019 -2
1020 2
1021 -2
1022 4
1023 2
1024 2
1025 2
1026 2
1027 4
1028 4
1029 4
1030 2
1031 4
1032 2
1033 2
1034 4
1035 -2
